Cars = 1..200;
Options = 1..5;
Classes = 1..27;
sequenceMinCapacity = [0, 0, 0, 0, 0];
sequenceMaxCapacity = [1, 2, 1, 2, 1];
sequenceSize = [2, 3, 3, 5, 5];
numOrdered = [2, 1, 12, 21, 1, 6, 3, 8, 2, 17, 3, 13, 6, 2, 1, 4, 3, 3, 4, 8, 12, 24, 5, 6, 3, 29, 1];
classHasOption = [| true, false,  true,  true, false
                  | true, false,  true, false,  true
                  |false,  true, false,  true, false
                  |false, false, false,  true, false
                  | true,  true,  true, false,  true
                  | true,  true, false,  true, false
                  |false, false, false,  true,  true
                  | true, false, false,  true, false
                  |false,  true,  true,  true, false
                  | true, false, false, false, false
                  |false,  true, false,  true,  true
                  |false,  true,  true, false, false
                  |false, false,  true, false,  true
                  |false,  true,  true, false,  true
                  |false, false,  true,  true,  true
                  | true, false,  true, false, false
                  | true,  true,  true, false, false
                  | true,  true, false, false,  true
                  | true, false, false, false,  true
                  |false, false,  true,  true, false
                  |false, false,  true, false, false
                  | true,  true, false, false, false
                  |false,  true, false, false,  true
                  |false, false, false, false, false
                  | true,  true,  true,  true, false
                  |false,  true, false, false, false
                  | true, false, false, false, false|];
optionOrdering = [3, 1, 5, 4, 2];
